Al O H                                  
   1.00000000000000     
    15.5563490000000009    0.0000000000000000    0.0000000000000000
     0.0000000000000000   15.5563490000000009    0.0000000000000000
     0.0000000000000000    0.0000000000000000   20.0000000000000000
    68   110    16
Selective dynamics
Direct
  0.7009699999999981  0.2248200000000011  0.8418599999999969   F   F   F
  0.2009699999999981  0.7248200000000011  0.8418599999999969   F   F   F
  0.9005300000000034  0.1993900000000011  0.8644699999999972   F   F   F
  0.4005300000000034  0.6993900000000011  0.8644699999999972   F   F   F
  0.1023399999999981  0.1964600000000019  0.8774500000000032   F   F   F
  0.6023399999999981  0.6964600000000019  0.8774500000000032   F   F   F
  0.6266000000000034  0.3903600000000012  0.8789200000000008   F   F   F
  0.1266000000000034  0.8903600000000012  0.8789200000000008   F   F   F
  0.1923699999999968  0.3687400000000025  0.8869400000000027   F   F   F
  0.6923699999999968  0.8687400000000025  0.8869400000000027   F   F   F
  0.0065499999999972  0.3636100000000013  0.8985399999999970   F   F   F
  0.5065499999999972  0.8636100000000013  0.8985399999999970   F   F   F
  0.8217199999999991  0.3714999999999975  0.8986900000000020   F   F   F
  0.3217199999999991  0.8714999999999975  0.8986900000000020   F   F   F
  0.2449399999999997  0.0534899999999965  0.8991299999999995   F   F   F
  0.7449399999999997  0.5534899999999965  0.8991299999999995   F   F   F
  0.5857000000000028  0.0607600000000019  0.9057000000000031   F   F   F
  0.0857000000000028  0.5607600000000019  0.9057000000000031   F   F   F
  0.4130400000000023  0.0455600000000018  0.9280100000000004   F   F   F
  0.9130400000000023  0.5455600000000018  0.9280100000000004   F   F   F
  0.4872000000000014  0.2415799999999990  0.9462299999999999   F   F   F
  0.9872000000000014  0.7415799999999990  0.9462299999999999   F   F   F
  0.7057500000000019  0.1184299999999965  0.9820100000000025   F   F   F
  0.2057500000000019  0.6184300000000036  0.9820100000000025   F   F   F
  0.9053100000000001  0.0988299999999995  0.9950199999999967   F   F   F
  0.4053100000000001  0.5988299999999995  0.9950199999999967   F   F   F
  0.6003400000000028  0.4912199999999984  0.0016999999999996   F   F   F
  0.1003400000000028  0.9912199999999984  0.0016999999999996   F   F   F
  0.3569499999999977  0.2884999999999991  0.0136699999999976   F   F   F
  0.8569499999999977  0.7884999999999991  0.0136699999999976   F   F   F
  0.1696400000000011  0.2634199999999964  0.0226299999999995   F   F   F
  0.6696400000000011  0.7634199999999964  0.0226299999999995   F   F   F
  0.2641599999999968  0.4458399999999969  0.0229399999999984   F   F   F
  0.7641599999999968  0.9458399999999969  0.0229399999999984   F   F   F
  0.7332200000000029  0.3267600000000002  0.0290499999999980   F   F   F
  0.2332200000000029  0.8267600000000002  0.0290499999999980   F   F   F
  0.9181799999999996  0.3932199999999995  0.0294000000000025   F   F   F
  0.4181799999999996  0.8932199999999995  0.0294000000000025   F   F   F
  0.2691622490788168  0.1029062123204840  0.0460002684180434   T   T   T
  0.7691622490791266  0.6029062123201344  0.0460002684180434   T   T   T
  0.9964146661821501  0.2527035906673687  0.0476724272990099   T   T   T
  0.4964146661823519  0.7527035906672468  0.0476724272990099   T   T   T
  0.5385188128755535  0.0352118876537637  0.0627897125447834   T   T   T
  0.0385188128756371  0.5352118876538122  0.0627897125447834   T   T   T
  0.6535408432553174  0.1982415786696665  0.1130653926532425   T   T   T
  0.1535408432553428  0.6982415786694843  0.1130653926532425   T   T   T
  0.4297345929223388  0.4391410496175176  0.1193339562775615   T   T   T
  0.9297345929221832  0.9391410496173905  0.1193339562775615   T   T   T
  0.4856405649197628  0.2266413502806545  0.1220256657523876   T   T   T
  0.9856405649197271  0.7266413502807040  0.1220256657523876   T   T   T
  0.6306279110896632  0.3855970113093554  0.1296085547206278   T   T   T
  0.1306279110898658  0.8855970113090764  0.1296085547206278   T   T   T
  0.1185017882994814  0.0581295466680013  0.1434653853454561   T   T   T
  0.6185017882995046  0.5581295466678968  0.1434653853454561   T   T   T
  0.9286826707473389  0.1355200862551005  0.1556103475519581   T   T   T
  0.4286826707473659  0.6355200862552651  0.1556103475519581   T   T   T
  0.7599875197995868  0.0337791306358033  0.1600620913881218   T   T   T
  0.2599875197997702  0.5337791306357773  0.1600620913881218   T   T   T
  0.8483418707275494  0.3072942955712583  0.1656834197831509   T   T   T
  0.3483418707278165  0.8072942955717017  0.1656834197831509   T   T   T
  0.1299331414765388  0.4153192714616225  0.1656417941077189   T   T   T
  0.6299331414767864  0.9153192714618886  0.1656417941077189   T   T   T
  0.1120803646123847  0.2286648332929034  0.1761143604563992   T   T   T
  0.6120803646124626  0.7286648332931073  0.1761143604563992   T   T   T
  0.3108456363422178  0.1459575457582551  0.1808118212927786   T   T   T
  0.8108456363421475  0.6459575457586343  0.1808118212927786   T   T   T
  0.7927574168708821  0.4815957999173835  0.1900361806677600   T   T   T
  0.2927574168706487  0.9815957999177147  0.1900361806677600   T   T   T
  0.6308999999999969  0.2278900000000021  0.7744399999999985   F   F   F
  0.1308999999999969  0.7278900000000021  0.7744399999999985   F   F   F
  0.6119300000000010  0.4237299999999991  0.7986500000000021   F   F   F
  0.1119300000000010  0.9237299999999991  0.7986500000000021   F   F   F
  0.8061099999999968  0.1828900000000004  0.8185599999999980   F   F   F
  0.3061099999999968  0.6828900000000004  0.8185599999999980   F   F   F
  0.2754100000000008  0.3533100000000005  0.8337999999999965   F   F   F
  0.7754100000000008  0.8533100000000005  0.8337999999999965   F   F   F
  0.0037499999999966  0.1636299999999977  0.8505499999999984   F   F   F
  0.5037499999999966  0.6636299999999977  0.8505499999999984   F   F   F
  0.1943899999999985  0.1372500000000016  0.8598599999999976   F   F   F
  0.6943899999999985  0.6372500000000016  0.8598599999999976   F   F   F
  0.9098299999999995  0.3202500000000015  0.8693000000000026   F   F   F
  0.4098299999999995  0.8202500000000015  0.8693000000000026   F   F   F
  0.1025899999999993  0.3108799999999974  0.8719699999999975   F   F   F
  0.6025899999999993  0.8108799999999974  0.8719699999999975   F   F   F
  0.8248800000000003  0.4814300000000031  0.8764200000000031   F   F   F
  0.3248800000000003  0.9814300000000031  0.8764200000000031   F   F   F
  0.7266100000000009  0.3228599999999986  0.8789099999999976   F   F   F
  0.2266100000000009  0.8228599999999986  0.8789099999999976   F   F   F
  0.1590500000000006  0.4748700000000028  0.8847999999999985   F   F   F
  0.6590500000000006  0.9748700000000028  0.8847999999999985   F   F   F
  0.9967899999999972  0.4756199999999993  0.8976899999999972   F   F   F
  0.4967899999999972  0.9756199999999993  0.8976899999999972   F   F   F
  0.6684600000000032  0.1517699999999991  0.9058100000000024   F   F   F
  0.1684600000000032  0.6517699999999991  0.9058100000000024   F   F   F
  0.5546999999999969  0.3214400000000026  0.9144599999999983   F   F   F
  0.0546999999999969  0.8214400000000026  0.9144599999999983   F   F   F
  0.4878300000000024  0.1337800000000016  0.9167199999999980   F   F   F
  0.9878300000000024  0.6337800000000016  0.9167199999999980   F   F   F
  0.6582500000000024  0.4804499999999976  0.9248499999999993   F   F   F
  0.1582500000000024  0.9804499999999976  0.9248499999999993   F   F   F
  0.3742400000000004  0.2718500000000006  0.9249399999999994   F   F   F
  0.8742400000000004  0.7718500000000006  0.9249399999999994   F   F   F
  0.8691400000000016  0.1857800000000012  0.9476200000000006   F   F   F
  0.3691400000000016  0.6857800000000012  0.9476200000000006   F   F   F
  0.3125700000000009  0.0903899999999993  0.9648200000000031   F   F   F
  0.8125700000000009  0.5903899999999993  0.9648200000000031   F   F   F
  0.1203399999999988  0.2006000000000014  0.9680000000000035   F   F   F
  0.6203399999999988  0.7006000000000014  0.9680000000000035   F   F   F
  0.2180000000000035  0.3625499999999988  0.9767999999999972   F   F   F
  0.7180000000000035  0.8625499999999988  0.9767999999999972   F   F   F
  0.9966799999999978  0.3345199999999977  0.9834999999999994   F   F   F
  0.4966799999999978  0.8345199999999977  0.9834999999999994   F   F   F
  0.8194900000000018  0.3728199999999973  0.9884199999999979   F   F   F
  0.3194900000000018  0.8728199999999973  0.9884199999999979   F   F   F
  0.9954600000000013  0.0292299999999983  0.9929699999999997   F   F   F
  0.4954600000000013  0.5292299999999983  0.9929699999999997   F   F   F
  0.6203599999999980  0.0486900000000006  0.0004700000000000   F   F   F
  0.1203599999999980  0.5486900000000006  0.0004700000000000   F   F   F
  0.7920599999999993  0.0501799999999974  0.0049899999999994   F   F   F
  0.2920599999999993  0.5501799999999974  0.0049899999999994   F   F   F
  0.4418000000000006  0.0022000000000020  0.0129599999999996   F   F   F
  0.9418000000000006  0.5022000000000020  0.0129599999999996   F   F   F
  0.6892799999999966  0.2177399999999992  0.0268999999999977   F   F   F
  0.1892799999999966  0.7177399999999992  0.0268999999999977   F   F   F
  0.4577208172982792  0.2457467244220921  0.0338296051260455   T   T   T
  0.9577208172980666  0.7457467244222985  0.0338296051260455   T   T   T
  0.6425478179250099  0.3933187273686972  0.0377952989199279   T   T   T
  0.1425478179250497  0.8933187273686771  0.0377952989199279   T   T   T
  0.3661276860876211  0.3958554228577452  0.0459716164096538   T   T   T
  0.8661276860876448  0.8958554228577090  0.0459716164096538   T   T   T
  0.2729608109960528  0.2221743021579196  0.0489465395292466   T   T   T
  0.7729608109961811  0.7221743021579200  0.0489465395292466   T   T   T
  0.1616920913714610  0.0653570676235548  0.0571236452794120   T   T   T
  0.6616920913715817  0.5653570676237850  0.0571236452794120   T   T   T
  0.9403088686943500  0.1579847964873431  0.0674340301137871   T   T   T
  0.4403088686942601  0.6579847964871514  0.0674340301137871   T   T   T
  0.0972573558079790  0.2658669104880131  0.0896432995704344   T   T   T
  0.5972573558078271  0.7658669104880481  0.0896432995704344   T   T   T
  0.9193701526266798  0.3214412739982103  0.0943643054561701   T   T   T
  0.4193701526262870  0.8214412739979516  0.0943643054561701   T   T   T
  0.5504533615990069  0.1351724721443009  0.1048800627082610   T   T   T
  0.0504533615987737  0.6351724721442640  0.1048800627082610   T   T   T
  0.2206024688142043  0.4468508873971341  0.1072220283368488   T   T   T
  0.7206024688143247  0.9468508873964546  0.1072220283368488   T   T   T
  0.3184238058365568  0.0581087704986803  0.1198679352652092   T   T   T
  0.8184238058366566  0.5581087704985322  0.1198679352652092   T   T   T
  0.7440487837359314  0.3215731646193903  0.1199849145875793   T   T   T
  0.2440487837359642  0.8215731646197303  0.1199849145875793   T   T   T
  0.5409466697915710  0.4676500809960772  0.1213386466498424   T   T   T
  0.0409466697914339  0.9676500809958831  0.1213386466498424   T   T   T
  0.0457112553551998  0.4549689428397636  0.1203583342080581   T   T   T
  0.5457112553553533  0.9549689428397411  0.1203583342080581   T   T   T
  0.5830089726095269  0.2831062283570533  0.1442843758362764   T   T   T
  0.0830089726094249  0.7831062283572153  0.1442843758362764   T   T   T
  0.8745201923482773  0.0332653436732831  0.1505094470884931   T   T   T
  0.3745201923483306  0.5332653436732304  0.1505094470884931   T   T   T
  0.7246230330439986  0.1336503943903581  0.1495295970695918   T   T   T
  0.2246230330438857  0.6336503943901216  0.1495295970695918   T   T   T
  0.3966832218439643  0.2085271102266699  0.1711030587702936   T   T   T
  0.8966832218438148  0.7085271102266727  0.1711030587702936   T   T   T
  0.1990374542826288  0.1565771585345191  0.1755150918951073   T   T   T
  0.6990374542825344  0.6565771585342958  0.1755150918951073   T   T   T
  0.0412506214994634  0.1345690780043317  0.1766769026868401   T   T   T
  0.5412506214993934  0.6345690780042145  0.1766769026868401   T   T   T
  0.6804609126031974  0.4705820027688617  0.1802983230995099   T   T   T
  0.1804609126031439  0.9705820027692977  0.1802983230995099   T   T   T
  0.4245907127436392  0.3651904802045473  0.1808975786500991   T   T   T
  0.9245907127436126  0.8651904802046803  0.1808975786500991   T   T   T
  0.8788927163596260  0.2122102427721779  0.2000258226657990   T   T   T
  0.3788927163596119  0.7122102427718653  0.2000258226657990   T   T   T
  0.8522112194769824  0.3987180135876690  0.2126075468864372   T   T   T
  0.3522112194768472  0.8987180135875207  0.2126075468864372   T   T   T
  0.1214054966920641  0.3243729916420282  0.2137907193889767   T   T   T
  0.6214054966921737  0.8243729916423550  0.2137907193889767   T   T   T
  0.1957645297165600  0.4841088498687093  0.2243568689786908   T   T   T
  0.6957645297169019  0.9841088498691407  0.2243568689786908   T   T   T
  0.3150379667040197  0.0702933374248388  0.2498675129582520   T   T   T
  0.8150379667044569  0.5702933374248004  0.2498675129582520   T   T   T
  0.5819699999999983  0.2406300000000030  0.7492900000000020   F   F   F
  0.0819699999999983  0.7406300000000030  0.7492900000000020   F   F   F
  0.6133099999999985  0.4311399999999992  0.7528999999999968   F   F   F
  0.1133099999999985  0.9311399999999992  0.7528999999999968   F   F   F
  0.8008799999999994  0.1413799999999981  0.7845500000000030   F   F   F
  0.3008799999999994  0.6413799999999981  0.7845500000000030   F   F   F
  0.3089000000000013  0.3435399999999973  0.7958700000000007   F   F   F
  0.8089000000000013  0.8435399999999973  0.7958700000000007   F   F   F
  0.3398899999999969  0.3032400000000024  0.8926900000000018   F   F   F
  0.8398899999999969  0.8032400000000024  0.8926900000000018   F   F   F
  0.3907988057344325  0.3131936252414567  0.1893034869658669   T   T   T
  0.8907988057346575  0.8131936252414933  0.1893034869658669   T   T   T
  0.1843257000634773  0.4979384769962875  0.2706210564040395   T   T   T
  0.6843257000635072  0.9979384769963617  0.2706210564040395   T   T   T
  0.3642598580555554  0.0602742487900769  0.2787169277427666   T   T   T
  0.8642598580558382  0.5602742487899416  0.2787169277427666   T   T   T
 
  0.00000000E+00  0.00000000E+00  0.00000000E+00
  0.00000000E+00  0.00000000E+00  0.00000000E+00
  0.00000000E+00  0.00000000E+00  0.00000000E+00
  0.00000000E+00  0.00000000E+00  0.00000000E+00
  0.00000000E+00  0.00000000E+00  0.00000000E+00
  0.00000000E+00  0.00000000E+00  0.00000000E+00
  0.00000000E+00  0.00000000E+00  0.00000000E+00
  0.00000000E+00  0.00000000E+00  0.00000000E+00
  0.00000000E+00  0.00000000E+00  0.00000000E+00
  0.00000000E+00  0.00000000E+00  0.00000000E+00
  0.00000000E+00  0.00000000E+00  0.00000000E+00
  0.00000000E+00  0.00000000E+00  0.00000000E+00
  0.00000000E+00  0.00000000E+00  0.00000000E+00
  0.00000000E+00  0.00000000E+00  0.00000000E+00
  0.00000000E+00  0.00000000E+00  0.00000000E+00
  0.00000000E+00  0.00000000E+00  0.00000000E+00
  0.00000000E+00  0.00000000E+00  0.00000000E+00
  0.00000000E+00  0.00000000E+00  0.00000000E+00
  0.00000000E+00  0.00000000E+00  0.00000000E+00
  0.00000000E+00  0.00000000E+00  0.00000000E+00
  0.00000000E+00  0.00000000E+00  0.00000000E+00
  0.00000000E+00  0.00000000E+00  0.00000000E+00
  0.00000000E+00  0.00000000E+00  0.00000000E+00
  0.00000000E+00  0.00000000E+00  0.00000000E+00
  0.00000000E+00  0.00000000E+00  0.00000000E+00
  0.00000000E+00  0.00000000E+00  0.00000000E+00
  0.00000000E+00  0.00000000E+00  0.00000000E+00
  0.00000000E+00  0.00000000E+00  0.00000000E+00
  0.00000000E+00  0.00000000E+00  0.00000000E+00
  0.00000000E+00  0.00000000E+00  0.00000000E+00
  0.00000000E+00  0.00000000E+00  0.00000000E+00
  0.00000000E+00  0.00000000E+00  0.00000000E+00
  0.00000000E+00  0.00000000E+00  0.00000000E+00
  0.00000000E+00  0.00000000E+00  0.00000000E+00
  0.00000000E+00  0.00000000E+00  0.00000000E+00
  0.00000000E+00  0.00000000E+00  0.00000000E+00
  0.00000000E+00  0.00000000E+00  0.00000000E+00
  0.00000000E+00  0.00000000E+00  0.00000000E+00
  0.00000000E+00  0.00000000E+00  0.00000000E+00
  0.00000000E+00  0.00000000E+00  0.00000000E+00
  0.00000000E+00  0.00000000E+00  0.00000000E+00
  0.00000000E+00  0.00000000E+00  0.00000000E+00
  0.00000000E+00  0.00000000E+00  0.00000000E+00
  0.00000000E+00  0.00000000E+00  0.00000000E+00
  0.00000000E+00  0.00000000E+00  0.00000000E+00
  0.00000000E+00  0.00000000E+00  0.00000000E+00
  0.00000000E+00  0.00000000E+00  0.00000000E+00
  0.00000000E+00  0.00000000E+00  0.00000000E+00
  0.00000000E+00  0.00000000E+00  0.00000000E+00
  0.00000000E+00  0.00000000E+00  0.00000000E+00
  0.00000000E+00  0.00000000E+00  0.00000000E+00
  0.00000000E+00  0.00000000E+00  0.00000000E+00
  0.00000000E+00  0.00000000E+00  0.00000000E+00
  0.00000000E+00  0.00000000E+00  0.00000000E+00
  0.00000000E+00  0.00000000E+00  0.00000000E+00
  0.00000000E+00  0.00000000E+00  0.00000000E+00
  0.00000000E+00  0.00000000E+00  0.00000000E+00
  0.00000000E+00  0.00000000E+00  0.00000000E+00
  0.00000000E+00  0.00000000E+00  0.00000000E+00
  0.00000000E+00  0.00000000E+00  0.00000000E+00
  0.00000000E+00  0.00000000E+00  0.00000000E+00
  0.00000000E+00  0.00000000E+00  0.00000000E+00
  0.00000000E+00  0.00000000E+00  0.00000000E+00
  0.00000000E+00  0.00000000E+00  0.00000000E+00
  0.00000000E+00  0.00000000E+00  0.00000000E+00
  0.00000000E+00  0.00000000E+00  0.00000000E+00
  0.00000000E+00  0.00000000E+00  0.00000000E+00
  0.00000000E+00  0.00000000E+00  0.00000000E+00
  0.00000000E+00  0.00000000E+00  0.00000000E+00
  0.00000000E+00  0.00000000E+00  0.00000000E+00
  0.00000000E+00  0.00000000E+00  0.00000000E+00
  0.00000000E+00  0.00000000E+00  0.00000000E+00
  0.00000000E+00  0.00000000E+00  0.00000000E+00
  0.00000000E+00  0.00000000E+00  0.00000000E+00
  0.00000000E+00  0.00000000E+00  0.00000000E+00
  0.00000000E+00  0.00000000E+00  0.00000000E+00
  0.00000000E+00  0.00000000E+00  0.00000000E+00
  0.00000000E+00  0.00000000E+00  0.00000000E+00
  0.00000000E+00  0.00000000E+00  0.00000000E+00
  0.00000000E+00  0.00000000E+00  0.00000000E+00
  0.00000000E+00  0.00000000E+00  0.00000000E+00
  0.00000000E+00  0.00000000E+00  0.00000000E+00
  0.00000000E+00  0.00000000E+00  0.00000000E+00
  0.00000000E+00  0.00000000E+00  0.00000000E+00
  0.00000000E+00  0.00000000E+00  0.00000000E+00
  0.00000000E+00  0.00000000E+00  0.00000000E+00
  0.00000000E+00  0.00000000E+00  0.00000000E+00
  0.00000000E+00  0.00000000E+00  0.00000000E+00
  0.00000000E+00  0.00000000E+00  0.00000000E+00
  0.00000000E+00  0.00000000E+00  0.00000000E+00
  0.00000000E+00  0.00000000E+00  0.00000000E+00
  0.00000000E+00  0.00000000E+00  0.00000000E+00
  0.00000000E+00  0.00000000E+00  0.00000000E+00
  0.00000000E+00  0.00000000E+00  0.00000000E+00
  0.00000000E+00  0.00000000E+00  0.00000000E+00
  0.00000000E+00  0.00000000E+00  0.00000000E+00
  0.00000000E+00  0.00000000E+00  0.00000000E+00
  0.00000000E+00  0.00000000E+00  0.00000000E+00
  0.00000000E+00  0.00000000E+00  0.00000000E+00
  0.00000000E+00  0.00000000E+00  0.00000000E+00
  0.00000000E+00  0.00000000E+00  0.00000000E+00
  0.00000000E+00  0.00000000E+00  0.00000000E+00
  0.00000000E+00  0.00000000E+00  0.00000000E+00
  0.00000000E+00  0.00000000E+00  0.00000000E+00
  0.00000000E+00  0.00000000E+00  0.00000000E+00
  0.00000000E+00  0.00000000E+00  0.00000000E+00
  0.00000000E+00  0.00000000E+00  0.00000000E+00
  0.00000000E+00  0.00000000E+00  0.00000000E+00
  0.00000000E+00  0.00000000E+00  0.00000000E+00
  0.00000000E+00  0.00000000E+00  0.00000000E+00
  0.00000000E+00  0.00000000E+00  0.00000000E+00
  0.00000000E+00  0.00000000E+00  0.00000000E+00
  0.00000000E+00  0.00000000E+00  0.00000000E+00
  0.00000000E+00  0.00000000E+00  0.00000000E+00
  0.00000000E+00  0.00000000E+00  0.00000000E+00
  0.00000000E+00  0.00000000E+00  0.00000000E+00
  0.00000000E+00  0.00000000E+00  0.00000000E+00
  0.00000000E+00  0.00000000E+00  0.00000000E+00
  0.00000000E+00  0.00000000E+00  0.00000000E+00
  0.00000000E+00  0.00000000E+00  0.00000000E+00
  0.00000000E+00  0.00000000E+00  0.00000000E+00
  0.00000000E+00  0.00000000E+00  0.00000000E+00
  0.00000000E+00  0.00000000E+00  0.00000000E+00
  0.00000000E+00  0.00000000E+00  0.00000000E+00
  0.00000000E+00  0.00000000E+00  0.00000000E+00
  0.00000000E+00  0.00000000E+00  0.00000000E+00
  0.00000000E+00  0.00000000E+00  0.00000000E+00
  0.00000000E+00  0.00000000E+00  0.00000000E+00
  0.00000000E+00  0.00000000E+00  0.00000000E+00
  0.00000000E+00  0.00000000E+00  0.00000000E+00
  0.00000000E+00  0.00000000E+00  0.00000000E+00
  0.00000000E+00  0.00000000E+00  0.00000000E+00
  0.00000000E+00  0.00000000E+00  0.00000000E+00
  0.00000000E+00  0.00000000E+00  0.00000000E+00
  0.00000000E+00  0.00000000E+00  0.00000000E+00
  0.00000000E+00  0.00000000E+00  0.00000000E+00
  0.00000000E+00  0.00000000E+00  0.00000000E+00
  0.00000000E+00  0.00000000E+00  0.00000000E+00
  0.00000000E+00  0.00000000E+00  0.00000000E+00
  0.00000000E+00  0.00000000E+00  0.00000000E+00
  0.00000000E+00  0.00000000E+00  0.00000000E+00
  0.00000000E+00  0.00000000E+00  0.00000000E+00
  0.00000000E+00  0.00000000E+00  0.00000000E+00
  0.00000000E+00  0.00000000E+00  0.00000000E+00
  0.00000000E+00  0.00000000E+00  0.00000000E+00
  0.00000000E+00  0.00000000E+00  0.00000000E+00
  0.00000000E+00  0.00000000E+00  0.00000000E+00
  0.00000000E+00  0.00000000E+00  0.00000000E+00
  0.00000000E+00  0.00000000E+00  0.00000000E+00
  0.00000000E+00  0.00000000E+00  0.00000000E+00
  0.00000000E+00  0.00000000E+00  0.00000000E+00
  0.00000000E+00  0.00000000E+00  0.00000000E+00
  0.00000000E+00  0.00000000E+00  0.00000000E+00
  0.00000000E+00  0.00000000E+00  0.00000000E+00
  0.00000000E+00  0.00000000E+00  0.00000000E+00
  0.00000000E+00  0.00000000E+00  0.00000000E+00
  0.00000000E+00  0.00000000E+00  0.00000000E+00
  0.00000000E+00  0.00000000E+00  0.00000000E+00
  0.00000000E+00  0.00000000E+00  0.00000000E+00
  0.00000000E+00  0.00000000E+00  0.00000000E+00
  0.00000000E+00  0.00000000E+00  0.00000000E+00
  0.00000000E+00  0.00000000E+00  0.00000000E+00
  0.00000000E+00  0.00000000E+00  0.00000000E+00
  0.00000000E+00  0.00000000E+00  0.00000000E+00
  0.00000000E+00  0.00000000E+00  0.00000000E+00
  0.00000000E+00  0.00000000E+00  0.00000000E+00
  0.00000000E+00  0.00000000E+00  0.00000000E+00
  0.00000000E+00  0.00000000E+00  0.00000000E+00
  0.00000000E+00  0.00000000E+00  0.00000000E+00
  0.00000000E+00  0.00000000E+00  0.00000000E+00
  0.00000000E+00  0.00000000E+00  0.00000000E+00
  0.00000000E+00  0.00000000E+00  0.00000000E+00
  0.00000000E+00  0.00000000E+00  0.00000000E+00
  0.00000000E+00  0.00000000E+00  0.00000000E+00
  0.00000000E+00  0.00000000E+00  0.00000000E+00
  0.00000000E+00  0.00000000E+00  0.00000000E+00
  0.00000000E+00  0.00000000E+00  0.00000000E+00
  0.00000000E+00  0.00000000E+00  0.00000000E+00
  0.00000000E+00  0.00000000E+00  0.00000000E+00
  0.00000000E+00  0.00000000E+00  0.00000000E+00
  0.00000000E+00  0.00000000E+00  0.00000000E+00
  0.00000000E+00  0.00000000E+00  0.00000000E+00
  0.00000000E+00  0.00000000E+00  0.00000000E+00
  0.00000000E+00  0.00000000E+00  0.00000000E+00
  0.00000000E+00  0.00000000E+00  0.00000000E+00
  0.00000000E+00  0.00000000E+00  0.00000000E+00
  0.00000000E+00  0.00000000E+00  0.00000000E+00
  0.00000000E+00  0.00000000E+00  0.00000000E+00
  0.00000000E+00  0.00000000E+00  0.00000000E+00
  0.00000000E+00  0.00000000E+00  0.00000000E+00
  0.00000000E+00  0.00000000E+00  0.00000000E+00
  0.00000000E+00  0.00000000E+00  0.00000000E+00
  0.00000000E+00  0.00000000E+00  0.00000000E+00
  0.00000000E+00  0.00000000E+00  0.00000000E+00
